c --- [ banner ] -------------------------------------------------------------
c 
c CaDiCaL Radically Simplified CDCL SAT Solver
c Copyright (c) 2016-2021 A. Biere, M. Fleury, N. Froleyks
c 
c Version 1.5.2 9c38a080b32c28d805e8e6ca21849856b0cda605
c g++ (Ubuntu 7.5.0-3ubuntu1~18.04) 7.5.0 -Wall -Wextra -O3 -DNDEBUG
c Wed Feb 16 23:15:36 EST 2022 Linux fac-vanhoeve01 5.4.0-99-generic x86_64
c 
c --- [ limit ] --------------------------------------------------------------
c 
c setting time limit to 600 seconds real time (due to '-t 600')
c setting conflict limit to 1000000000 conflicts (due to '1000000000')
c 
c --- [ parsing input ] ------------------------------------------------------
c 
c reading DIMACS file from 'ddfwcnfs/wap02a.col_40.cnf'
c opening file to read 'ddfwcnfs/wap02a.col_40.cnf'
c found 'p cnf 98560 4253384' header
c parsed 4253384 clauses in 2.54 seconds process time
c closing file 'ddfwcnfs/wap02a.col_40.cnf'
c after reading 68126656 bytes 65.0 MB
c 
c --- [ options ] ------------------------------------------------------------
c 
c all options are set to their default value
c 
c --- [ solving ] ------------------------------------------------------------
c 
c time measured in process time since initialization
c 
c  seconds   reductions  redundant   irredundant
c          MB    restarts       trail        variables
c           level   conflicts       glue          remaining
c 
c *  2.54 376  0 0   0    0    0  0% 0 4251784 96960 98%
c {  2.58 378  0 0   0    0    0  0% 0 4251784 96960 98%
c -  3.41 378 39 1   0  300  148  4% 36 4251784 96960 98%
c }  3.54 378 40 1   0 1000  634  4% 36 4251784 96960 98%
c [  3.54 378  0 1   0 1000  634  0% 0 4251784 96960 98%
c O  3.54 378 50 1   0 1002  636  4% 28 4251784 96960 98%
c -  5.78 476 48 2   0 1883 1096  4% 35 4251784 96960 98%
c ]  5.88 476 45 2   1 3003 1817  4% 37 4251784 96960 98%
c {  5.88 476 40 2   1 3003 1817  4% 36 4251784 96960 98%
c F  5.88 476 40 2   1 3004 1818  4% 36 4251784 96960 98%
c -  7.49 476 53 3   1 4248 1876  5% 31 4251784 96960 98%
c # 11.17 472 50 3   1 6007 3241  5% 30 4251784 96960 98%
c } 11.26 472 49 3   3 7005 3966  6% 30 4251784 96960 98%
c [ 11.26 472 45 3   3 7005 3966  4% 37 4251784 96960 98%
c - 12.85 472 44 4   4 7404 2930  4% 36 4251784 96960 98%
c I 13.10 472 42 4   5 10008 4701  4% 36 4251784 96960 98%
c s 14.75 488 822 4   6 10911 5337  6% 38 4251784 96960 98%
c e 24.26 488 822 4   6 10911 2842  6% 38 3774349 90415 92%
c s 25.96 505 822 4   6 10911 2831  6% 38 3774349 90415 92%
c ^ 26.79 505 822 4   6 10911 2831  6% 38 3774349 90415 92%
c 
c  seconds     reductions   redundant    irredundant
c          MB      restarts        trail         variables
c            level     conflicts       glue           remaining
c 
c - 28.57 515 1377 5   7 11346 1638  7% 39 3774349 90415 92%
c ] 32.64 544 8568 5   8 15006 4380 22% 47 3774349 90415 92%
c { 32.64 544 49 5   8 15006 4380  6% 30 3774349 90415 92%
c B 32.66 544 50 5   8 15010 4384  6% 30 3774349 90415 92%
c - 34.15 545 67 6 260 15985 3910  6% 31 3774349 90415 92%
c W 36.04 545 75 6 1307 21011 7719  6% 34 3774349 90415 92%
c - 37.60 545 81 7 1349 21397 5222  6% 35 3774349 90415 92%
c - 39.57 545 71 8 1361 27582 6286  6% 35 3774349 90415 92%
c F 39.61 545 71 8 1361 28013 6600  6% 35 3774349 90415 92%
c } 43.48 545 65 8 1361 31007 8628  6% 34 3774349 90415 92%
c [ 43.48 545 8568 8 1361 31007 8628 22% 47 3774349 90415 92%
c s 43.88 545 7448 8 1361 32446 9523 20% 46 3774349 90415 92%
c w 47.01 545 7448 8 1361 32446 9513 20% 46 3774349 90415 92%
c s 51.68 545 7448 8 1361 32446 9267 20% 46 3774349 90415 92%
c ^ 52.46 545 7448 8 1361 32446 9267 20% 46 3774349 90415 92%
c - 54.17 545 6238 9 1363 34541 7738 18% 45 3774349 90415 92%
c B 54.30 545 5590 9 1364 36014 8583 16% 44 3774349 90415 92%
c - 57.05 547 8294 10 1368 42271 8203 26% 64 3774349 90415 92%
c W 58.95 547 7286 10 1368 45016 10161 25% 68 3774349 90415 92%
c - 64.52 547 5777 11 1369 50774 8599 21% 68 3774349 90415 92%
c 
c  seconds     reductions      redundant    irredundant
c          MB       restarts          trail         variables
c            level       conflicts        glue           remaining
c 
c O 65.25 547 6109 11 1370 55021 11951 23% 72 3774349 90415 92%
c - 67.06 547 5190 12 1374 60050 9029 20% 67 3774349 90415 92%
c ] 67.29 547 4755 12 1376 63008 10900 19% 65 3774349 90415 92%
c { 67.29 547 65 12 1376 63008 10900  6% 34 3774349 90415 92%
c s 67.63 547 67 12 1376 64748 12075  6% 33 3774349 90415 92%
c w 70.62 547 67 12 1376 64748 12074  6% 33 3774349 90415 92%
c s 75.25 547 67 12 1376 64748 12052  6% 33 3774349 90415 92%
c ^ 76.01 547 67 12 1376 64748 12052  6% 33 3774349 90415 92%
c B 76.13 547 65 12 1376 66022 12842  6% 33 3774349 90415 92%
c - 78.17 545 64 13 1511 70100 8212  6% 33 3774349 90415 92%
c W 84.52 545 61 13 1668 78028 12635  6% 34 3774349 90415 92%
c - 86.26 545 61 14 1722 80922 8438  6% 34 3774349 90415 92%
c # 87.52 545 60 14 2068 91030 15455  6% 34 3774349 90415 92%
c - 89.10 546 60 15 2078 92517 10314  6% 34 3774349 90415 92%
c - 91.86 546 54 16 2100 104885 10209  6% 34 3774349 90415 92%
c B 95.17 546 54 16 2100 105034 10300  6% 34 3774349 90415 92%
c s 96.00 546 58 16 2766 107819 11400  7% 35 3774349 90415 92%
c w 99.00 546 58 16 2766 107819 11391  7% 35 3774349 90415 92%
c s 103.63 546 58 16 2766 107819 11181  7% 35 3774349 90415 92%
c ^ 104.30 546 58 16 2766 107819 11181  7% 35 3774349 90415 92%
c 
c  seconds    reductions       redundant    irredundant
c           MB     restarts           trail         variables
c            level      conflicts         glue           remaining
c 
c - 106.83 547 78 17 5175 118027 12028  7% 39 3774349 90415 92%
c W 109.41 547 76 17 5175 120037 13291  7% 39 3774349 90415 92%
c } 109.97 547 72 17 5175 127010 18092  7% 39 3774349 90415 92%
c [ 109.97 547 4755 17 5175 127010 18092 19% 65 3774349 90415 92%
c - 111.67 546 4198 18 5177 131941 12565 18% 63 3774349 90415 92%
c B 112.03 546 3781 18 5180 136039 14885 17% 60 3774349 90415 92%
c - 118.41 550 6575 19 5183 146630 14674 25% 78 3774349 90415 92%
c W 122.05 550 6698 19 5184 153043 19939 28% 86 3774349 90415 92%
c s 123.23 550 6223 19 5184 161655 26231 29% 83 3774349 90415 92%
c w 125.95 550 6223 19 5184 161655 26230 29% 83 3774349 90415 92%
c s 130.49 550 6223 19 5184 161655 26227 29% 83 3774349 90415 92%
c ^ 131.19 550 6223 19 5184 161655 26227 29% 83 3774349 90415 92%
c - 132.57 551 6175 20 5184 162091 16108 29% 83 3774349 90415 92%
c I 133.62 551 5383 20 5187 171044 22935 26% 81 3774349 90415 92%
c - 135.88 550 5318 21 5191 178325 16941 26% 85 3774349 90415 92%
c B 141.52 550 5054 21 5198 190045 26651 26% 89 3774349 90415 92%
c - 143.54 552 4681 22 5199 195333 18830 25% 87 3774349 90415 92%
c W 148.01 552 3813 22 5206 210046 29362 22% 80 3774349 90415 92%
c - 149.57 548 3657 23 5206 213115 17814 22% 79 3774349 90415 92%
c s 154.66 548 3296 23 5214 226258 27074 20% 74 3774349 90415 92%
c 
c  seconds      reductions       redundant    irredundant
c           MB       restarts           trail         variables
c             level       conflicts         glue           remaining
c 
c w 157.43 548 3296 23 5214 226258 27074 20% 74 3774349 90415 92%
c s 162.16 548 3296 23 5214 226258 26753 20% 74 3774349 90415 92%
c O 163.63 548 3111 23 5214 231048 30117 20% 74 3774349 90415 92%
c - 165.01 549 3087 24 5214 231668 18800 20% 74 3774349 90415 92%
c - 168.32 549 2437 25 5216 250995 19084 18% 71 3774349 90415 92%
c B 168.59 549 2378 25 5216 253052 20603 17% 71 3774349 90415 92%
c ] 169.14 549 3019 25 5216 255012 22280 18% 75 3774349 90415 92%
c { 169.14 549 72 25 5216 255012 22280  7% 39 3774349 90415 92%
c - 171.69 549 65 26 5237 271097 19862  7% 38 3774349 90415 92%
c F 175.35 549 63 26 5237 276057 23245  7% 38 3774349 90415 92%
c - 177.99 548 62 27 5237 291972 22776  6% 36 3774349 90415 92%
c B 178.81 548 61 27 5237 300059 29704  6% 35 3774349 90415 92%
c - 181.36 549 61 28 5508 313618 24429  6% 36 3774349 90415 92%
c W 186.58 549 60 28 5852 325060 33527  6% 36 3774349 90415 92%
c - 192.59 549 60 29 6153 336036 23282  6% 36 3774349 90415 92%
c # 193.88 549 57 29 6280 351062 31588  6% 36 3774349 90415 92%
c - 195.88 548 55 30 6282 359227 20575  6% 36 3774349 90415 92%
c B 197.69 548 52 30 6365 378065 33000  6% 36 3774349 90415 92%
c - 199.48 548 52 31 6750 383192 20773  6% 36 3774349 90415 92%
c W 210.74 548 60 31 7204 406067 33996  6% 37 3774349 90415 92%
c 
c  seconds    reductions       redundant    irredundant
c           MB     restarts           trail         variables
c            level      conflicts         glue           remaining
c 
c - 212.19 548 61 32 7217 407929 19604  6% 37 3774349 90415 92%
c - 216.02 548 68 33 7475 433440 20166  6% 37 3774349 90415 92%
c F 216.20 548 68 33 7479 435068 21017  6% 37 3774349 90415 92%
c - 223.21 548 62 34 7590 459729 21158  7% 38 3774349 90415 92%
c B 223.75 548 61 34 7616 465071 24346  7% 38 3774349 90415 92%
c - 227.65 548 64 35 13121 486785 16254  7% 43 3774349 90415 92%
c W 234.68 548 64 35 15453 496072 19049  7% 44 3774349 90415 92%
c } 236.41 548 83 35 15472 511012 30474  7% 44 3774349 90415 92%
c [ 236.41 548 3019 35 15472 511012 30474 18% 75 3774349 90415 92%
c - 238.53 550 3196 36 15472 514618 21384 19% 77 3774349 90415 92%
c W 250.57 550 3631 36 15472 528077 31004 21% 80 3774349 90415 92%
c - 253.94 555 3075 37 15475 543221 27075 19% 80 3774349 90415 92%
c I 256.53 555 2536 37 15486 561078 40318 17% 79 3774349 90415 92%
c - 260.15 560 5994 38 15488 572596 29461 21% 99 3774349 90415 92%
c B 263.66 560 5683 38 15501 595087 46622 21% 99 3774349 90415 92%
c - 269.73 556 5751 39 15502 602745 30607 22% 97 3774349 90415 92%
c W 281.74 556 4389 39 15509 630088 53164 21% 93 3774349 90415 92%
c - 283.79 557 4498 40 15510 633667 33704 22% 93 3774349 90415 92%
c s 284.18 557 4498 40 15510 633667 33592 22% 93 3774349 90415 92%
c w 287.20 557 4498 40 15510 633667 33579 22% 93 3774349 90415 92%
c 
c  seconds      reductions        redundant    irredundant
c           MB        restarts           trail         variables
c             level        conflicts         glue           remaining
c 
c - 293.11 555 4247 41 15525 665363 36262 23% 86 3774349 90415 92%
c O 293.17 555 4216 41 15525 666089 36757 23% 86 3774349 90415 92%
c - 300.52 550 3055 42 15534 697831 32563 18% 72 3774349 90415 92%
c B 301.06 550 2898 42 15534 703093 36261 17% 70 3774349 90415 92%
c - 305.41 556 3373 43 15535 731072 31919 24% 69 3774349 90415 92%
c W 314.76 556 3806 43 15536 741095 39154 26% 70 3774349 90415 92%
c - 323.00 560 5753 44 15536 765087 35486 29% 85 3774349 90415 92%
c I 324.97 560 4981 44 15536 780096 46456 26% 90 3774349 90415 92%
c - 328.31 562 8127 45 15536 799874 33002 28% 113 3774349 90415 92%
c B 331.99 562 9211 45 15546 820099 48564 31% 119 3774349 90415 92%
c - 335.72 562 7949 46 15551 835437 36664 29% 115 3774349 90415 92%
c W 350.07 562 6362 46 15565 861100 54215 25% 100 3774349 90415 92%
c - 353.64 557 6008 47 15567 871770 36716 24% 106 3774349 90415 92%
c O 357.77 557 5625 47 15577 903102 60343 24% 98 3774349 90415 92%
c - 359.63 556 5313 48 15581 908877 36907 23% 95 3774349 90415 92%
c B 364.03 556 3686 48 15597 946105 64139 17% 77 3774349 90415 92%
c - 365.85 553 3900 49 15597 946756 37610 18% 81 3774349 90415 92%
c - 388.01 585 3836 50 15599 985410 44711 24% 119 3774349 90415 92%
c W 400.46 585 3686 50 15599 990107 48984 24% 120 3774349 90415 92%
c ] 406.22 585 3630 50 15612 1023014 74683 25% 110 3774349 90415 92%
c 
c  seconds    reductions         redundant    irredundant
c           MB      restarts            trail         variables
c            level        conflicts         glue           remaining
c 
c { 406.22 585 83 50 15612 1023014 74683  7% 44 3774349 90415 92%
c - 407.73 560 83 51 15615 1024836 42905  7% 44 3774349 90415 92%
c # 408.67 560 79 51 15642 1035108 49903  7% 44 3774349 90415 92%
c - 416.76 552 70 52 15668 1065034 39277  6% 43 3774349 90415 92%
c s 417.14 552 70 52 15668 1065034 38834  6% 43 3774349 90415 92%
c w 420.39 552 70 52 15668 1065034 38820  6% 43 3774349 90415 92%
c B 422.58 552 66 52 15724 1081110 49173  6% 42 3774349 90415 92%
c - 427.15 554 115 53 20372 1106005 42364  6% 44 3774349 90415 92%
c W 441.51 554 147 53 23837 1128112 59861  6% 46 3774349 90415 92%
c - 445.56 556 170 54 26505 1147749 45279  6% 47 3774349 90415 92%
c F 452.77 556 195 54 27788 1176114 68271  7% 47 3774349 90415 92%
c - 455.73 555 175 55 27792 1190266 46149  7% 46 3774349 90415 92%
c B 460.94 555 137 55 27792 1225120 75184  7% 44 3774349 90415 92%
c - 463.19 554 134 56 27850 1233557 47391  7% 44 3774349 90415 92%
c W 484.20 554 103 56 27853 1275121 76204  7% 43 3774349 90415 92%
c - 485.81 553 102 57 27853 1277622 42821  7% 43 3774349 90415 92%
c - 492.19 553 81 58 27860 1322459 44969  7% 42 3774349 90415 92%
c # 492.60 553 79 58 27910 1326124 47547  7% 42 3774349 90415 92%
c - 498.25 554 67 59 27913 1368069 49042  7% 41 3774349 90415 92%
c B 499.53 554 65 59 27918 1378125 57593  7% 41 3774349 90415 92%
c 
c  seconds    reductions         redundant    irredundant
c           MB      restarts            trail         variables
c            level        conflicts         glue           remaining
c 
c - 507.76 554 68 60 28625 1414453 48667  7% 41 3774349 90415 92%
c W 523.60 554 64 60 28675 1431126 59218  7% 40 3774349 90415 92%
c - 527.89 552 58 61 28727 1461610 42797  7% 40 3774349 90415 92%
c F 530.52 552 54 61 28817 1485128 57557  7% 40 3774349 90415 92%
c - 537.77 553 54 62 28824 1509539 46215  7% 39 3774349 90415 92%
c B 541.65 553 50 62 28834 1540130 67785  6% 38 3774349 90415 92%
c - 544.81 552 50 63 28994 1558243 45132  7% 38 3774349 90415 92%
c s 545.19 552 50 63 28994 1558243 43525  7% 38 3774349 90415 92%
c W 569.22 552 47 63 29169 1596131 67063  7% 38 3774349 90415 92%
c - 571.82 552 47 64 29200 1607719 43584  7% 38 3774349 90415 92%
c # 580.07 552 45 64 29364 1653132 72026  7% 39 3774349 90415 92%
c - 581.86 552 45 65 29366 1657968 42421  7% 39 3774349 90415 92%
c - 588.90 553 44 66 29491 1708990 45438  7% 39 3774349 90415 92%
c B 589.19 553 44 66 29500 1711134 46793  7% 39 3774349 90415 92%
c - 599.38 553 60 67 30117 1760785 43711  7% 39 3774349 90415 92%
c } 599.95 553 62 67 30119 1766167 47054  7% 39 3774349 90415 92%
c ? 599.95 553 62 67 30119 1766167 47054  7% 39 3774349 90415 92%
c 
c --- [ result ] -------------------------------------------------------------
c 
c UNKNOWN
c 
c --- [ run-time profiling ] -------------------------------------------------
c 
c process time taken by individual solving procedures
c (percentage relative to process time for solving)
c 
c       453.33   75.88% search
c       172.67   28.90% unstable
c       155.73   26.07% stable
c       144.07   24.12% simplify
c       124.89   20.91% walk
c        36.42    6.10% ternary
c        27.80    4.65% elim
c        20.60    3.45% vivify
c        15.87    2.66% probe
c         5.68    0.95% subsume
c         2.54    0.43% parse
c         0.03    0.01% lucky
c   =================================
c       597.40   99.58% solve
c 
c last line shows process time for solving
c (percentage relative to total process time)
c 
c --- [ statistics ] ---------------------------------------------------------
c 
c chronological:            294031        16.65 %  of conflicts
c conflicts:               1766167      2956.40    per second
c decisions:               4869450      8151.02    per second
c eliminated:                 6545         6.64 %  of all variables
c fixed:                      1600         1.62 %  of all variables
c learned:                 1748530        99.00 %  per conflict
c learned_lits:          233423834       100.00 %  learned literals
c minimized:                     0         0.00 %  learned literals
c shrunken:               96199701        41.21 %  learned literals
c minishrunken:            6496094         2.78 %  learned literals
c propagations:          544837964         0.91 M  per second
c reduced:                 1207272        68.36 %  per conflict
c rephased:                     58     30451.16    interval
c restarts:                  30119        58.64    interval
c stabilizing:                   5        38.62 %  of conflicts
c subsumed:                 491652         4.03 %  of all clauses
c strengthened:              16056         0.13 %  of all clauses
c vivified:                     76         0.00 %  of all clauses
c walked:                       18     98120.39    interval
c weakened:                 576952         3.04    average size
c 
c seconds are measured in process time for solving
c 
c --- [ resources ] ----------------------------------------------------------
c 
c total process time since initialization:       599.95    seconds
c total real time since initialization:          600.00    seconds
c maximum resident set size of process:          701.17    MB
c 
c --- [ shutting down ] ------------------------------------------------------
c 
c exit 0
